language Essence 1.3

letting pain be
[
    [
        tuple ( tuple (
            [ [(1,10),(2,11), (3,12)], [(3,13),(4,14), (5,15)] ]
        ) ) ,

        tuple ( tuple (
            [ [(6,16),(7,17), (8,18)], [(9,19),(0,20), (9,19)] ]
        ) ) 
    ],
    [
        tuple ( tuple (
            [ [(8,15),(9,16), (1,17)], [(2,18),(3,19), (4,20)] ]
        ) ) ,

        tuple ( tuple (
            [ [(0,10),(1,11), (3,12)], [(4,15),(5,17), (7,19)] ]
        ) ) 
    ]
]
